<instance format="XCSP3" type="CSP">
  <variables>
    <var id="x0"> 0 6 10 12 </var>
    <var id="x1"> 0 6 9 10 </var>
    <var id="x2"> 5 8 </var>
    <var id="x3"> 0 2 6 8 9 </var>
    <var id="x4"> 0 2 5 6 </var>
    <var id="x5"> 5 6 </var>
    <var id="x6"> 0 2 6 9 10 </var>
    <var id="x7"> 0 10 12 </var>
    <var id="x8"> 0 8 </var>
    <var id="x9"> 0 1 10 </var>
    <var id="x10"> 1 8 14 </var>
    <var id="x11"> 1 3 10 14 </var>
    <var id="x12"> 0 5 14 </var>
    <var id="x13"> 3 5 </var>
    <var id="x14"> 0 1 3 10 </var>
    <var id="x15"> 7 8 13 15 </var>
    <var id="x16"> 6 8 9 14 15 </var>
    <var id="x17"> 6 9 14 </var>
    <var id="x18"> 8 9 14 </var>
    <var id="x19"> 8 13 15 </var>
    <var id="x20"> 8 9 14 </var>
    <var id="x21"> 7 15 </var>
    <var id="x22"> 3 14 15 </var>
    <var id="x23"> 0 1 14 15 </var>
    <var id="x24"> 0 1 6 15 </var>
    <var id="x25"> 3 14..16 </var>
    <var id="x26"> 3 15 16 </var>
    <var id="x27"> 0 6 14 </var>
    <var id="x28"> 1 14 16 </var>
    <var id="x29"> 1 9 12 13 </var>
    <var id="x30"> 1 4 9 12 </var>
    <var id="x31"> 1 4 9 17 </var>
    <var id="x32"> 1 2 12 13 </var>
    <var id="x33"> 4 13 16 17 </var>
    <var id="x34"> 2 9 13 </var>
    <var id="x35"> 13 16 17 </var>
    <var id="x36"> 1 12 16 </var>
    <var id="x37"> 0 2 8 15 </var>
    <var id="x38"> 2 8 14 17 </var>
    <var id="x39"> 2 3 14 </var>
    <var id="x40"> 3 8 14 17 </var>
    <var id="x41"> 0 2 6 8 14 </var>
    <var id="x42"> 0 2 6 14 </var>
    <var id="x43"> 2 8 14 </var>
    <var id="x44"> 0 2 6 14 </var>
    <var id="x45"> 3 9 12 14 </var>
    <var id="x46"> 8 9 12 14 </var>
    <var id="x47"> 10 12 </var>
    <var id="x48"> 3 9 10 14 16 </var>
    <var id="x49"> 7..10 14 </var>
    <var id="x50"> 3 8 12 16 </var>
    <var id="x51"> 8 9 12 14 16 </var>
    <var id="x52"> 9 10 14 16 </var>
    <var id="x53"> 4 9 12 </var>
    <var id="x54"> 4 7 8 11 </var>
    <var id="x55"> 6 12 </var>
    <var id="x56"> 4 6 8 9 12 </var>
    <var id="x57"> 4 6 9 </var>
    <var id="x58"> 4 5 8 </var>
    <var id="x59"> 6..9 </var>
    <var id="x60"> 7 12 </var>
    <var id="x61"> 2 4 9 15 </var>
    <var id="x62"> 1 9 15 </var>
    <var id="x63"> 1 4 9 15 </var>
    <var id="x64"> 1 2 7 </var>
    <var id="x65"> 4 16 </var>
    <var id="x66"> 2 11 15 16 </var>
    <var id="x67"> 2 4 7 </var>
    <var id="x68"> 2 9 16 </var>
    <var id="x69"> 0 13 15 17 </var>
    <var id="x70"> 0 4 14 17 </var>
    <var id="x71"> 14 17 </var>
    <var id="x72"> 4 13 14 17 </var>
    <var id="x73"> 11 13 15 </var>
    <var id="x74"> 0 4 7 13 14 </var>
    <var id="x75"> 7 13 17 </var>
    <var id="x76"> 11 14 </var>
    <var id="x77"> 1 9 14 </var>
    <var id="x78"> 2 4 </var>
    <var id="x79"> 1 6 10 17 </var>
    <var id="x80"> 1 4 6 9 14 </var>
    <var id="x81"> 4 9 10 14 </var>
    <var id="x82"> 2 4 9 10 14 </var>
    <var id="x83"> 1 2 10 14 </var>
    <var id="x84"> 2 6 9 14 </var>
    <var id="x85"> 1 13 15 17 </var>
    <var id="x86"> 1 9 14 15 </var>
    <var id="x87"> 9 14..16 </var>
    <var id="x88"> 1 2 9 14 17 </var>
    <var id="x89"> 13 14 16 17 </var>
    <var id="x90"> 2 13 15 16 </var>
    <var id="x91"> 2 13 14 </var>
    <var id="x92"> 2 9 13 14 16 </var>
    <var id="x93"> 2 12 14 15 </var>
    <var id="x94"> 8 12 14 15 </var>
    <var id="x95"> 10 14 15 </var>
    <var id="x96"> 2 8 10 14 </var>
    <var id="x97"> 0 10 14 </var>
    <var id="x98"> 2 10 12..14 </var>
    <var id="x99"> 2 8 12 14 </var>
    <var id="x100"> 0 10 12 15 </var>
    <var id="x101"> 1 13..15 </var>
    <var id="x102"> 4 13 15 </var>
    <var id="x103"> 3 4 14 15 </var>
    <var id="x104"> 4 5 14 </var>
    <var id="x105"> 1 3 13 14 </var>
    <var id="x106"> 6 13 14 </var>
    <var id="x107"> 3 5 6 13 </var>
    <var id="x108"> 6 13 14 </var>
    <var id="x109"> 2 7 10 14 </var>
    <var id="x110"> 1 2 12 14 </var>
    <var id="x111"> 13 14 16 </var>
    <var id="x112"> 2 7 13 14 </var>
    <var id="x113"> 2 7 13 14 </var>
    <var id="x114"> 1 2 12 14 16 </var>
    <var id="x115"> 2 10 13 14 16 </var>
    <var id="x116"> 1 7 10 12 16 </var>
    <var id="x117"> 2..4 9 12 14 </var>
    <var id="x118"> 0 9 12..14 </var>
    <var id="x119"> 3 4 9 14 </var>
    <var id="x120"> 2 4 9 14 </var>
    <var id="x121"> 0 4 9 14 </var>
    <var id="x122"> 2 9 12 14 </var>
    <var id="x123"> 2 3 12 13 </var>
    <var id="x124"> 0 3 12 </var>
    <var id="x125"> 9 12 14 </var>
    <var id="x126"> 7 8 13 </var>
    <var id="x127"> 8 9 12 14 </var>
    <var id="x128"> 7..10 14 </var>
    <var id="x129"> 9 10 14 </var>
    <var id="x130"> 8 12 13 16 </var>
    <var id="x131"> 7..9 13 14 </var>
    <var id="x132"> 7 13 16 </var>
    <var id="x133"> 2..4 12 17 </var>
    <var id="x134"> 0 8 12 13 </var>
    <var id="x135"> 0 2 4 8 13 </var>
    <var id="x136"> 2 4 8 </var>
    <var id="x137"> 2 3 12 13 </var>
    <var id="x138"> 3 13 17 </var>
    <var id="x139"> 2 8 12 </var>
    <var id="x140"> 0 2 13 </var>
  </variables>
  <constraints>
    <group>
      <allDifferent> %... </allDifferent>
      <args> x0 x1 x2 x3 x4 x5 x6 x7 </args>
      <args> x8 x9 x10 x11 x12 x13 x14 </args>
      <args> x15 x16 x17 x18 x19 x20 x21 </args>
      <args> x22 x23 x24 x25 x26 x27 x28 </args>
      <args> x29 x30 x31 x32 x33 x34 x35 x36 </args>
      <args> x37 x38 x39 x40 x41 x42 x43 x44 </args>
      <args> x45 x46 x47 x48 x49 x50 x51 x52 </args>
      <args> x53 x54 x55 x56 x57 x58 x59 x60 </args>
      <args> x61 x62 x63 x64 x65 x66 x67 x68 </args>
      <args> x69 x70 x71 x72 x73 x74 x75 x76 </args>
      <args> x77 x78 x79 x80 x81 x82 x83 x84 </args>
      <args> x85 x86 x87 x88 x89 x90 x91 x92 </args>
      <args> x93 x94 x95 x96 x97 x98 x99 x100 </args>
      <args> x101 x102 x103 x104 x105 x106 x107 x108 </args>
      <args> x109 x110 x111 x112 x113 x114 x115 x116 </args>
      <args> x117 x118 x119 x120 x121 x122 x123 x124 </args>
      <args> x125 x126 x127 x128 x129 x130 x131 x132 </args>
      <args> x133 x134 x135 x136 x137 x138 x139 x140 </args>
      <args> x22 x45 x53 x61 x93 x117 x125 x133 </args>
      <args> x23 x29 x46 x62 x77 x101 x118 x134 </args>
      <args> x8 x15 x37 x54 x78 x102 x126 x135 </args>
      <args> x0 x9 x24 x47 x55 x69 x79 x85 </args>
      <args> x16 x30 x56 x63 x80 x86 x94 x127 </args>
      <args> x25 x48 x81 x87 x95 x103 x119 </args>
      <args> x49 x82 x96 x104 x109 x120 x128 x136 </args>
      <args> x1 x17 x31 x57 x70 x97 x121 x129 </args>
      <args> x10 x18 x38 x71 x88 x110 x122 </args>
      <args> x11 x32 x39 x64 x83 x98 x105 x137 </args>
      <args> x2 x33 x40 x58 x65 x72 x89 x111 </args>
      <args> x19 x26 x50 x66 x73 x90 x123 x130 </args>
      <args> x3 x34 x41 x59 x84 x106 x112 x131 </args>
      <args> x4 x12 x27 x42 x67 x74 x91 x113 </args>
      <args> x5 x13 x35 x75 x107 x132 x138 </args>
      <args> x20 x28 x43 x51 x76 x99 x114 x139 </args>
      <args> x6 x44 x52 x68 x92 x108 x115 x140 </args>
      <args> x7 x14 x21 x36 x60 x100 x116 x124 </args>
    </group>
  </constraints>
</instance>

